3 
4 
5  03 18 33 48 
6  03 15 22 30 37 43 51 58 
7  06 13 21 28 36 43 51 58 
8  06 13 21 28 36 43 51 58 
9  06 13 21 28 36 43 51 58 
10  06 13 21 28 36 43 51 58 
11  06 13 21 28 36 43 51 58 
12  06 13 21 28 36 43 51 58 
13  05 12 20 27 35 42 50 57 
14  05 12 20 27 35 42 50 57 
15  04 12 19 27 34 42 49 57 
16  04 12 19 27 34 42 49 57 
17  04 12 19 27 34 42 49 57 
18  04 12 19 27 34 42 49 57 
19  04 13 21 29 36 44 52 59 
20  06 14 21 34 49 
21  04 19 34 49 
22  04 17 32 45 58 
23 
0 
